NAME: PointSet_Angle_30_5
TYPE: TSP
COMMENT: Points chosen discrete uniformly at random out of ${0, \ldots, 500}^2$.
DIMENSION: 30
EDGE_WEIGHT_TYPE: EUC_2D
NODE_COORD_SECTION
1 492 300
2 383 137
3 1 72
4 318 368
5 361 18
6 52 252
7 499 263
8 122 130
9 107 246
10 155 246
11 101 90
12 407 189
13 288 431
14 433 181
15 404 418
16 202 395
17 217 84
18 278 218
19 156 96
20 333 264
21 361 385
22 15 359
23 147 385
24 235 255
25 130 391
26 247 478
27 481 154
28 167 14
29 84 346
30 196 234
EOF
